56295
48, 19, 43, 40, 51, 5, 37, 7, 20, 50, 24, 35, 38, 8, 44, 32, 41, 13, 3, 6, 28, 55, 26, 49, 23, 21, 29, 22, 10, 9, 14, 2, 45, 11, 52, 16, 39, 46, 36, 15, 25, 31, 27, 1, 33, 42, 12, 18, 4, 30, 47, 54, 34, 53, 17
